benchmarks_CP/INST_36x36/35/inst36x36_35_63.dzn
S=6;
start=[|
9,	-1,	14,	-1,	-1,	-1,	17,	5,	-1,	30,	23,	-1,	-1,	-1,	-1,	-1,	-1,	-1,	-1,	10,	-1,	-1,	-1,	-1,	-1,	-1,	-1,	-1,	-1,	-1,	-1,	-1,	-1,	25,	-1,	-1|
-1,	8,	-1,	27,	-1,	-1,	-1,	-1,	-1,	26,	-1,	21,	9,	-1,	-1,	23,	10,	-1,	-1,	16,	-1,	32,	30,	19,	3,	-1,	2,	-1,	5,	24,	6,	-1,	-1,	12,	-1,	-1|
-1,	5,	-1,	-1,	7,	-1,	-1,	10,	-1,	-1,	-1,	-1,	-1,	-1,	-1,	8,	26,	-1,	-1,	-1,	24,	2,	35,	34,	-1,	-1,	-1,	-1,	22,	-1,	14,	-1,	28,	-1,	-1,	31|
-1,	-1,	-1,	-1,	-1,	-1,	2,	31,	-1,	-1,	4,	-1,	-1,	-1,	-1,	-1,	-1,	-1,	27,	12,	33,	7,	-1,	6,	-1,	-1,	-1,	28,	17,	25,	24,	11,	-1,	1,	-1,	9|
34,	10,	-1,	-1,	-1,	-1,	28,	-1,	-1,	19,	-1,	-1,	30,	-1,	-1,	-1,	-1,	-1,	-1,	-1,	-1,	-1,	-1,	-1,	-1,	-1,	-1,	-1,	-1,	-1,	8,	21,	-1,	-1,	-1,	-1|
-1,	35,	19,	-1,	33,	30,	9,	-1,	24,	1,	15,	-1,	25,	7,	28,	-1,	32,	17,	11,	-1,	-1,	-1,	-1,	31,	20,	-1,	4,	-1,	12,	-1,	23,	2,	-1,	10,	-1,	-1|
5,	-1,	-1,	-1,	32,	-1,	20,	-1,	26,	25,	24,	-1,	-1,	-1,	-1,	17,	19,	31,	-1,	1,	-1,	15,	22,	28,	35,	-1,	-1,	-1,	-1,	-1,	-1,	33,	29,	11,	-1,	21|
-1,	21,	29,	7,	-1,	28,	-1,	2,	-1,	-1,	-1,	-1,	4,	-1,	-1,	-1,	24,	-1,	-1,	-1,	19,	-1,	-1,	-1,	-1,	22,	-1,	-1,	-1,	-1,	13,	3,	-1,	-1,	-1,	-1|
-1,	-1,	2,	35,	-1,	-1,	27,	-1,	32,	-1,	-1,	8,	29,	-1,	-1,	-1,	-1,	-1,	-1,	-1,	-1,	-1,	-1,	12,	-1,	31,	-1,	-1,	-1,	17,	36,	30,	-1,	-1,	-1,	-1|
-1,	-1,	-1,	-1,	-1,	27,	29,	-1,	-1,	-1,	-1,	-1,	-1,	-1,	-1,	-1,	-1,	6,	-1,	-1,	7,	-1,	-1,	3,	-1,	12,	19,	-1,	10,	11,	5,	-1,	-1,	-1,	14,	-1|
30,	-1,	-1,	-1,	-1,	-1,	1,	-1,	-1,	-1,	-1,	15,	-1,	-1,	-1,	-1,	13,	-1,	-1,	17,	-1,	-1,	-1,	-1,	-1,	-1,	-1,	2,	14,	-1,	-1,	-1,	24,	4,	-1,	-1|
-1,	-1,	-1,	17,	-1,	6,	-1,	-1,	-1,	9,	3,	11,	-1,	25,	-1,	10,	35,	-1,	-1,	27,	-1,	13,	-1,	-1,	32,	-1,	30,	-1,	-1,	-1,	-1,	-1,	-1,	-1,	-1,	19|
1,	2,	-1,	-1,	-1,	16,	15,	-1,	-1,	-1,	6,	31,	-1,	-1,	9,	-1,	-1,	-1,	33,	-1,	-1,	-1,	34,	-1,	7,	18,	-1,	-1,	-1,	-1,	-1,	-1,	-1,	-1,	-1,	12|
-1,	-1,	-1,	-1,	-1,	-1,	-1,	-1,	21,	-1,	-1,	26,	2,	-1,	-1,	-1,	-1,	-1,	-1,	-1,	27,	-1,	9,	-1,	-1,	5,	-1,	12,	23,	32,	-1,	-1,	-1,	-1,	-1,	20|
-1,	-1,	-1,	15,	-1,	-1,	-1,	25,	-1,	-1,	-1,	27,	-1,	-1,	-1,	-1,	-1,	20,	-1,	-1,	22,	-1,	-1,	-1,	9,	-1,	-1,	11,	-1,	13,	18,	28,	-1,	-1,	33,	-1|
-1,	9,	-1,	-1,	25,	-1,	-1,	-1,	-1,	-1,	-1,	-1,	-1,	26,	21,	36,	-1,	-1,	16,	-1,	-1,	-1,	-1,	17,	-1,	-1,	20,	-1,	-1,	-1,	34,	-1,	-1,	-1,	15,	7|
21,	-1,	28,	-1,	27,	22,	8,	3,	-1,	-1,	-1,	12,	-1,	-1,	-1,	-1,	17,	-1,	23,	6,	-1,	-1,	-1,	-1,	-1,	-1,	-1,	24,	29,	-1,	-1,	-1,	-1,	30,	11,	-1|
24,	-1,	-1,	-1,	-1,	-1,	13,	-1,	30,	32,	-1,	-1,	-1,	-1,	7,	-1,	-1,	-1,	19,	8,	2,	-1,	20,	-1,	-1,	27,	-1,	-1,	-1,	-1,	21,	36,	-1,	-1,	6,	5|
10,	16,	-1,	-1,	-1,	-1,	3,	-1,	-1,	6,	-1,	-1,	-1,	-1,	-1,	7,	-1,	-1,	22,	34,	-1,	-1,	24,	14,	13,	29,	-1,	-1,	26,	-1,	20,	15,	-1,	-1,	-1,	36|
14,	-1,	-1,	1,	-1,	-1,	-1,	19,	11,	-1,	8,	-1,	-1,	10,	-1,	-1,	-1,	-1,	3,	-1,	-1,	27,	33,	5,	4,	17,	36,	-1,	-1,	-1,	-1,	-1,	-1,	-1,	-1,	-1|
-1,	-1,	-1,	34,	-1,	-1,	-1,	9,	4,	15,	-1,	29,	1,	-1,	25,	13,	-1,	-1,	-1,	-1,	-1,	-1,	16,	-1,	-1,	33,	5,	19,	-1,	-1,	-1,	8,	-1,	2,	-1,	-1|
-1,	32,	13,	-1,	-1,	-1,	-1,	-1,	-1,	27,	2,	24,	23,	-1,	34,	19,	22,	-1,	25,	26,	-1,	-1,	-1,	-1,	16,	-1,	12,	-1,	-1,	-1,	-1,	4,	-1,	-1,	-1,	14|
-1,	-1,	-1,	-1,	4,	-1,	14,	-1,	-1,	20,	36,	-1,	-1,	8,	-1,	-1,	-1,	9,	-1,	31,	1,	-1,	-1,	-1,	28,	-1,	-1,	3,	-1,	-1,	-1,	24,	-1,	21,	-1,	-1|
-1,	-1,	33,	9,	-1,	-1,	-1,	-1,	-1,	-1,	-1,	25,	-1,	24,	31,	-1,	15,	-1,	28,	-1,	-1,	29,	-1,	-1,	-1,	30,	-1,	-1,	-1,	-1,	-1,	27,	-1,	35,	3,	1|
-1,	-1,	-1,	-1,	-1,	15,	24,	1,	-1,	-1,	-1,	-1,	-1,	-1,	-1,	-1,	-1,	-1,	-1,	-1,	5,	20,	-1,	-1,	11,	-1,	26,	-1,	-1,	-1,	29,	-1,	-1,	16,	31,	-1|
-1,	-1,	9,	30,	-1,	-1,	-1,	-1,	27,	22,	-1,	3,	-1,	-1,	-1,	-1,	-1,	-1,	24,	-1,	-1,	-1,	-1,	8,	-1,	-1,	33,	10,	16,	29,	7,	-1,	-1,	-1,	-1,	18|
19,	-1,	-1,	3,	14,	29,	12,	33,	7,	28,	30,	-1,	-1,	-1,	-1,	-1,	-1,	16,	13,	4,	-1,	-1,	21,	-1,	-1,	20,	8,	-1,	-1,	6,	25,	-1,	9,	-1,	-1,	-1|
33,	-1,	-1,	20,	34,	10,	-1,	-1,	14,	29,	-1,	17,	22,	-1,	-1,	-1,	21,	-1,	7,	-1,	-1,	-1,	-1,	27,	2,	4,	-1,	23,	-1,	35,	3,	-1,	-1,	36,	-1,	-1|
8,	-1,	4,	-1,	-1,	-1,	-1,	-1,	9,	-1,	-1,	-1,	-1,	-1,	-1,	-1,	-1,	-1,	-1,	-1,	-1,	-1,	-1,	2,	30,	-1,	-1,	-1,	-1,	-1,	17,	12,	27,	33,	-1,	13|
-1,	-1,	-1,	12,	36,	13,	31,	-1,	-1,	-1,	-1,	-1,	-1,	-1,	-1,	-1,	-1,	-1,	30,	9,	-1,	34,	3,	-1,	-1,	-1,	-1,	-1,	7,	27,	1,	-1,	-1,	-1,	-1,	2|
-1,	17,	-1,	-1,	-1,	5,	-1,	-1,	2,	-1,	-1,	-1,	-1,	-1,	13,	-1,	-1,	3,	32,	-1,	-1,	-1,	-1,	-1,	-1,	23,	16,	20,	30,	21,	-1,	31,	-1,	-1,	-1,	-1|
-1,	28,	-1,	-1,	-1,	-1,	-1,	27,	12,	17,	-1,	-1,	-1,	-1,	-1,	30,	-1,	24,	-1,	-1,	25,	8,	4,	-1,	-1,	2,	14,	15,	-1,	-1,	9,	-1,	-1,	29,	1,	-1|
-1,	18,	-1,	-1,	8,	32,	33,	-1,	-1,	-1,	29,	-1,	-1,	-1,	-1,	5,	12,	-1,	-1,	30,	-1,	-1,	-1,	-1,	-1,	-1,	9,	-1,	-1,	10,	-1,	14,	-1,	15,	2,	-1|
-1,	-1,	-1,	-1,	10,	-1,	-1,	-1,	-1,	-1,	-1,	1,	-1,	-1,	-1,	-1,	-1,	7,	6,	-1,	-1,	-1,	-1,	-1,	-1,	-1,	-1,	-1,	-1,	26,	-1,	-1,	12,	-1,	-1,	-1|
-1,	-1,	-1,	-1,	1,	23,	-1,	24,	-1,	-1,	-1,	-1,	-1,	-1,	19,	21,	-1,	29,	-1,	-1,	-1,	36,	27,	-1,	-1,	-1,	35,	-1,	-1,	-1,	-1,	13,	-1,	32,	-1,	-1|
29,	13,	-1,	-1,	-1,	-1,	-1,	-1,	-1,	-1,	-1,	-1,	10,	-1,	-1,	-1,	25,	35,	-1,	-1,	-1,	-1,	-1,	-1,	-1,	28,	-1,	-1,	-1,	-1,	-1,	17,	26,	-1,	-1,	-1|];
